\* Problem_okien *\
Maximize
Zysk: 3000 Iloœæ_pakietów_okien_aluminiowych
 + 5000 Iloœæ_pakietów_okien_drewnianych
Subject To
F1: Iloœæ_pakietów_okien_aluminiowych <= 4
F2: 2 Iloœæ_pakietów_okien_drewnianych <= 12
F3: 3 Iloœæ_pakietów_okien_aluminiowych + 2 Iloœæ_pakietów_okien_drewnianych
 <= 18
End
